(set-info :smt-lib-version 2.6)
(set-logic QF_SLIA)
(set-info :source |
Generated by: Denghang Hu
Generated on: 2023-04-14
Application: Evaluate string solvers
Target solver: Ostrich, Z3str3, CVC5
Description: The instance consists of:
(1) a regular membership predicate from the real world
(2) a regular membership predicate to sanitize danger letters in javascript such as <,>,&,",'
(3) a lower bound for string length
|)
(set-info :license "https://creativecommons.org/licenses/by/4.0/")
(set-info :category "industrial")
(set-info :status unknown)
        ;test regex r"^((BOA_[0-9]{4}-[0-9]{1,3})(?:CO)?.[pP][dD][fF]$)"
(declare-const X String)
(assert (str.in_re X (re.++ (re.++ (str.to_re "r") (str.to_re "\u{22}")) (re.++ (str.to_re "") (re.++ (re.++ (re.++ (re.++ (str.to_re "B") (re.++ (str.to_re "O") (re.++ (str.to_re "A") (re.++ (str.to_re "_") (re.++ ((_ re.loop 4 4) (re.range "0" "9")) (re.++ (str.to_re "-") ((_ re.loop 1 3) (re.range "0" "9")))))))) (re.++ (re.opt (re.++ (str.to_re "C") (str.to_re "O"))) (re.++ (re.diff re.allchar (str.to_re "\n")) (re.++ (re.union (str.to_re "p") (str.to_re "P")) (re.++ (re.union (str.to_re "d") (str.to_re "D")) (re.union (str.to_re "f") (str.to_re "F"))))))) (str.to_re "")) (str.to_re "\u{22}"))))))
; sanitize danger characters:  < > ' " &
(assert (not (str.in_re X (re.++ re.all (re.union (str.to_re "\u{3c}") (str.to_re "\u{3e}") (str.to_re "\u{27}") (str.to_re "\u{22}") (str.to_re "\u{26}")) re.all))))
(assert (< 20 (str.len X)))
(check-sat)
(exit)
